(set-info :category "industrial")
(set-info :status sat)
(declare-fun x00 () (_ BitVec 8))
(declare-fun x01 () (_ BitVec 8))
(declare-fun x03 () (_ BitVec 8))
(declare-fun x05 () (_ BitVec 8))
(declare-fun x08 () (_ BitVec 8))
(declare-fun x13 () (_ BitVec 8))
(declare-fun x14 () (_ BitVec 8))
(declare-fun x15 () (_ BitVec 8))
(declare-fun x16 () (_ BitVec 8))
(declare-fun x17 () (_ BitVec 8))
(declare-fun x18 () (_ BitVec 8))
(declare-fun x21 () (_ BitVec 8))
(declare-fun x22 () (_ BitVec 8))
(declare-fun x23 () (_ BitVec 8))
(declare-fun x26 () (_ BitVec 8))
(declare-fun x27 () (_ BitVec 8))
(declare-fun x31 () (_ BitVec 8))
(declare-fun x33 () (_ BitVec 8))
(declare-fun x36 () (_ BitVec 8))
(declare-fun x40 () (_ BitVec 8))
(declare-fun x41 () (_ BitVec 8))
(declare-fun x44 () (_ BitVec 8))
(declare-fun x46 () (_ BitVec 8))
(declare-fun x48 () (_ BitVec 8))
(declare-fun x50 () (_ BitVec 8))
(declare-fun x52 () (_ BitVec 8))
(declare-fun x54 () (_ BitVec 8))
(declare-fun x55 () (_ BitVec 8))
(declare-fun x57 () (_ BitVec 8))
(declare-fun x58 () (_ BitVec 8))
(declare-fun x61 () (_ BitVec 8))
(declare-fun x62 () (_ BitVec 8))
(declare-fun x63 () (_ BitVec 8))
(declare-fun x64 () (_ BitVec 8))
(declare-fun x66 () (_ BitVec 8))
(declare-fun x67 () (_ BitVec 8))
(declare-fun x71 () (_ BitVec 8))
(declare-fun x72 () (_ BitVec 8))
(declare-fun x75 () (_ BitVec 8))
(declare-fun x76 () (_ BitVec 8))
(declare-fun x77 () (_ BitVec 8))
(declare-fun x80 () (_ BitVec 8))
(declare-fun x83 () (_ BitVec 8))
(declare-fun x84 () (_ BitVec 8))
(declare-fun x85 () (_ BitVec 8))
(declare-fun x87 () (_ BitVec 8))
(declare-fun x88 () (_ BitVec 8))
(assert (bvult x00 (_ bv9 8)))
(assert (bvult x01 (_ bv9 8)))
(assert (bvult x03 (_ bv9 8)))
(assert (bvult x05 (_ bv9 8)))
(assert (bvult x08 (_ bv9 8)))
(assert (bvult x13 (_ bv9 8)))
(assert (bvult x14 (_ bv9 8)))
(assert (bvult x15 (_ bv9 8)))
(assert (bvult x16 (_ bv9 8)))
(assert (bvult x17 (_ bv9 8)))
(assert (bvult x18 (_ bv9 8)))
(assert (bvult x21 (_ bv9 8)))
(assert (bvult x22 (_ bv9 8)))
(assert (bvult x23 (_ bv9 8)))
(assert (bvult x26 (_ bv9 8)))
(assert (bvult x27 (_ bv9 8)))
(assert (bvult x31 (_ bv9 8)))
(assert (bvult x33 (_ bv9 8)))
(assert (bvult x36 (_ bv9 8)))
(assert (bvult x40 (_ bv9 8)))
(assert (bvult x41 (_ bv9 8)))
(assert (bvult x44 (_ bv9 8)))
(assert (bvult x46 (_ bv9 8)))
(assert (bvult x48 (_ bv9 8)))
(assert (bvult x50 (_ bv9 8)))
(assert (bvult x52 (_ bv9 8)))
(assert (bvult x54 (_ bv9 8)))
(assert (bvult x55 (_ bv9 8)))
(assert (bvult x57 (_ bv9 8)))
(assert (bvult x58 (_ bv9 8)))
(assert (bvult x61 (_ bv9 8)))
(assert (bvult x62 (_ bv9 8)))
(assert (bvult x63 (_ bv9 8)))
(assert (bvult x64 (_ bv9 8)))
(assert (bvult x66 (_ bv9 8)))
(assert (bvult x67 (_ bv9 8)))
(assert (bvult x71 (_ bv9 8)))
(assert (bvult x72 (_ bv9 8)))
(assert (bvult x75 (_ bv9 8)))
(assert (bvult x76 (_ bv9 8)))
(assert (bvult x77 (_ bv9 8)))
(assert (bvult x80 (_ bv9 8)))
(assert (bvult x83 (_ bv9 8)))
(assert (bvult x84 (_ bv9 8)))
(assert (bvult x85 (_ bv9 8)))
(assert (bvult x87 (_ bv9 8)))
(assert (bvult x88 (_ bv9 8)))
(assert (not (= x00 x01)))
(assert (not (= x00 (_ bv4 8))))
(assert (not (= x00 x03)))
(assert (not (= x00 (_ bv6 8))))
(assert (not (= x00 x05)))
(assert (not (= x00 (_ bv5 8))))
(assert (not (= x00 (_ bv2 8))))
(assert (not (= x00 x08)))
(assert (not (= x01 (_ bv4 8))))
(assert (not (= x01 x03)))
(assert (not (= x01 (_ bv6 8))))
(assert (not (= x01 x05)))
(assert (not (= x01 (_ bv5 8))))
(assert (not (= x01 (_ bv2 8))))
(assert (not (= x01 x08)))
(assert (not (= (_ bv4 8) x03)))
(assert (not (= (_ bv4 8) (_ bv6 8))))
(assert (not (= (_ bv4 8) x05)))
(assert (not (= (_ bv4 8) (_ bv5 8))))
(assert (not (= (_ bv4 8) (_ bv2 8))))
(assert (not (= (_ bv4 8) x08)))
(assert (not (= x03 (_ bv6 8))))
(assert (not (= x03 x05)))
(assert (not (= x03 (_ bv5 8))))
(assert (not (= x03 (_ bv2 8))))
(assert (not (= x03 x08)))
(assert (not (= (_ bv6 8) x05)))
(assert (not (= (_ bv6 8) (_ bv5 8))))
(assert (not (= (_ bv6 8) (_ bv2 8))))
(assert (not (= (_ bv6 8) x08)))
(assert (not (= x05 (_ bv5 8))))
(assert (not (= x05 (_ bv2 8))))
(assert (not (= x05 x08)))
(assert (not (= (_ bv5 8) (_ bv2 8))))
(assert (not (= (_ bv5 8) x08)))
(assert (not (= (_ bv2 8) x08)))
(assert (not (= (_ bv8 8) (_ bv7 8))))
(assert (not (= (_ bv8 8) (_ bv5 8))))
(assert (not (= (_ bv8 8) x13)))
(assert (not (= (_ bv8 8) x14)))
(assert (not (= (_ bv8 8) x15)))
(assert (not (= (_ bv8 8) x16)))
(assert (not (= (_ bv8 8) x17)))
(assert (not (= (_ bv8 8) x18)))
(assert (not (= (_ bv7 8) (_ bv5 8))))
(assert (not (= (_ bv7 8) x13)))
(assert (not (= (_ bv7 8) x14)))
(assert (not (= (_ bv7 8) x15)))
(assert (not (= (_ bv7 8) x16)))
(assert (not (= (_ bv7 8) x17)))
(assert (not (= (_ bv7 8) x18)))
(assert (not (= (_ bv5 8) x13)))
(assert (not (= (_ bv5 8) x14)))
(assert (not (= (_ bv5 8) x15)))
(assert (not (= (_ bv5 8) x16)))
(assert (not (= (_ bv5 8) x17)))
(assert (not (= (_ bv5 8) x18)))
(assert (not (= x13 x14)))
(assert (not (= x13 x15)))
(assert (not (= x13 x16)))
(assert (not (= x13 x17)))
(assert (not (= x13 x18)))
(assert (not (= x14 x15)))
(assert (not (= x14 x16)))
(assert (not (= x14 x17)))
(assert (not (= x14 x18)))
(assert (not (= x15 x16)))
(assert (not (= x15 x17)))
(assert (not (= x15 x18)))
(assert (not (= x16 x17)))
(assert (not (= x16 x18)))
(assert (not (= x17 x18)))
(assert (not (= (_ bv3 8) x21)))
(assert (not (= (_ bv3 8) x22)))
(assert (not (= (_ bv3 8) x23)))
(assert (not (= (_ bv3 8) (_ bv4 8))))
(assert (not (= (_ bv3 8) (_ bv7 8))))
(assert (not (= (_ bv3 8) x26)))
(assert (not (= (_ bv3 8) x27)))
(assert (not (= (_ bv3 8) (_ bv1 8))))
(assert (not (= x21 x22)))
(assert (not (= x21 x23)))
(assert (not (= x21 (_ bv4 8))))
(assert (not (= x21 (_ bv7 8))))
(assert (not (= x21 x26)))
(assert (not (= x21 x27)))
(assert (not (= x21 (_ bv1 8))))
(assert (not (= x22 x23)))
(assert (not (= x22 (_ bv4 8))))
(assert (not (= x22 (_ bv7 8))))
(assert (not (= x22 x26)))
(assert (not (= x22 x27)))
(assert (not (= x22 (_ bv1 8))))
(assert (not (= x23 (_ bv4 8))))
(assert (not (= x23 (_ bv7 8))))
(assert (not (= x23 x26)))
(assert (not (= x23 x27)))
(assert (not (= x23 (_ bv1 8))))
(assert (not (= (_ bv4 8) (_ bv7 8))))
(assert (not (= (_ bv4 8) x26)))
(assert (not (= (_ bv4 8) x27)))
(assert (not (= (_ bv4 8) (_ bv1 8))))
(assert (not (= (_ bv7 8) x26)))
(assert (not (= (_ bv7 8) x27)))
(assert (not (= (_ bv7 8) (_ bv1 8))))
(assert (not (= x26 x27)))
(assert (not (= x26 (_ bv1 8))))
(assert (not (= x27 (_ bv1 8))))
(assert (not (= (_ bv6 8) x31)))
(assert (not (= (_ bv6 8) (_ bv9 8))))
(assert (not (= (_ bv6 8) x33)))
(assert (not (= (_ bv6 8) (_ bv5 8))))
(assert (not (= (_ bv6 8) (_ bv1 8))))
(assert (not (= (_ bv6 8) x36)))
(assert (not (= (_ bv6 8) (_ bv4 8))))
(assert (not (= (_ bv6 8) (_ bv2 8))))
(assert (not (= x31 (_ bv9 8))))
(assert (not (= x31 x33)))
(assert (not (= x31 (_ bv5 8))))
(assert (not (= x31 (_ bv1 8))))
(assert (not (= x31 x36)))
(assert (not (= x31 (_ bv4 8))))
(assert (not (= x31 (_ bv2 8))))
(assert (not (= (_ bv9 8) x33)))
(assert (not (= (_ bv9 8) (_ bv5 8))))
(assert (not (= (_ bv9 8) (_ bv1 8))))
(assert (not (= (_ bv9 8) x36)))
(assert (not (= (_ bv9 8) (_ bv4 8))))
(assert (not (= (_ bv9 8) (_ bv2 8))))
(assert (not (= x33 (_ bv5 8))))
(assert (not (= x33 (_ bv1 8))))
(assert (not (= x33 x36)))
(assert (not (= x33 (_ bv4 8))))
(assert (not (= x33 (_ bv2 8))))
(assert (not (= (_ bv5 8) (_ bv1 8))))
(assert (not (= (_ bv5 8) x36)))
(assert (not (= (_ bv5 8) (_ bv4 8))))
(assert (not (= (_ bv5 8) (_ bv2 8))))
(assert (not (= (_ bv1 8) x36)))
(assert (not (= (_ bv1 8) (_ bv4 8))))
(assert (not (= (_ bv1 8) (_ bv2 8))))
(assert (not (= x36 (_ bv4 8))))
(assert (not (= x36 (_ bv2 8))))
(assert (not (= (_ bv4 8) (_ bv2 8))))
(assert (not (= x40 x41)))
(assert (not (= x40 (_ bv2 8))))
(assert (not (= x40 (_ bv7 8))))
(assert (not (= x40 x44)))
(assert (not (= x40 (_ bv6 8))))
(assert (not (= x40 x46)))
(assert (not (= x40 (_ bv8 8))))
(assert (not (= x40 x48)))
(assert (not (= x41 (_ bv2 8))))
(assert (not (= x41 (_ bv7 8))))
(assert (not (= x41 x44)))
(assert (not (= x41 (_ bv6 8))))
(assert (not (= x41 x46)))
(assert (not (= x41 (_ bv8 8))))
(assert (not (= x41 x48)))
(assert (not (= (_ bv2 8) (_ bv7 8))))
(assert (not (= (_ bv2 8) x44)))
(assert (not (= (_ bv2 8) (_ bv6 8))))
(assert (not (= (_ bv2 8) x46)))
(assert (not (= (_ bv2 8) (_ bv8 8))))
(assert (not (= (_ bv2 8) x48)))
(assert (not (= (_ bv7 8) x44)))
(assert (not (= (_ bv7 8) (_ bv6 8))))
(assert (not (= (_ bv7 8) x46)))
(assert (not (= (_ bv7 8) (_ bv8 8))))
(assert (not (= (_ bv7 8) x48)))
(assert (not (= x44 (_ bv6 8))))
(assert (not (= x44 x46)))
(assert (not (= x44 (_ bv8 8))))
(assert (not (= x44 x48)))
(assert (not (= (_ bv6 8) x46)))
(assert (not (= (_ bv6 8) (_ bv8 8))))
(assert (not (= (_ bv6 8) x48)))
(assert (not (= x46 (_ bv8 8))))
(assert (not (= x46 x48)))
(assert (not (= (_ bv8 8) x48)))
(assert (not (= x50 (_ bv1 8))))
(assert (not (= x50 x52)))
(assert (not (= x50 (_ bv9 8))))
(assert (not (= x50 x54)))
(assert (not (= x50 x55)))
(assert (not (= x50 (_ bv3 8))))
(assert (not (= x50 x57)))
(assert (not (= x50 x58)))
(assert (not (= (_ bv1 8) x52)))
(assert (not (= (_ bv1 8) (_ bv9 8))))
(assert (not (= (_ bv1 8) x54)))
(assert (not (= (_ bv1 8) x55)))
(assert (not (= (_ bv1 8) (_ bv3 8))))
(assert (not (= (_ bv1 8) x57)))
(assert (not (= (_ bv1 8) x58)))
(assert (not (= x52 (_ bv9 8))))
(assert (not (= x52 x54)))
(assert (not (= x52 x55)))
(assert (not (= x52 (_ bv3 8))))
(assert (not (= x52 x57)))
(assert (not (= x52 x58)))
(assert (not (= (_ bv9 8) x54)))
(assert (not (= (_ bv9 8) x55)))
(assert (not (= (_ bv9 8) (_ bv3 8))))
(assert (not (= (_ bv9 8) x57)))
(assert (not (= (_ bv9 8) x58)))
(assert (not (= x54 x55)))
(assert (not (= x54 (_ bv3 8))))
(assert (not (= x54 x57)))
(assert (not (= x54 x58)))
(assert (not (= x55 (_ bv3 8))))
(assert (not (= x55 x57)))
(assert (not (= x55 x58)))
(assert (not (= (_ bv3 8) x57)))
(assert (not (= (_ bv3 8) x58)))
(assert (not (= x57 x58)))
(assert (not (= (_ bv9 8) x61)))
(assert (not (= (_ bv9 8) x62)))
(assert (not (= (_ bv9 8) x63)))
(assert (not (= (_ bv9 8) x64)))
(assert (not (= (_ bv9 8) (_ bv3 8))))
(assert (not (= (_ bv9 8) x66)))
(assert (not (= (_ bv9 8) x67)))
(assert (not (= (_ bv9 8) (_ bv6 8))))
(assert (not (= x61 x62)))
(assert (not (= x61 x63)))
(assert (not (= x61 x64)))
(assert (not (= x61 (_ bv3 8))))
(assert (not (= x61 x66)))
(assert (not (= x61 x67)))
(assert (not (= x61 (_ bv6 8))))
(assert (not (= x62 x63)))
(assert (not (= x62 x64)))
(assert (not (= x62 (_ bv3 8))))
(assert (not (= x62 x66)))
(assert (not (= x62 x67)))
(assert (not (= x62 (_ bv6 8))))
(assert (not (= x63 x64)))
(assert (not (= x63 (_ bv3 8))))
(assert (not (= x63 x66)))
(assert (not (= x63 x67)))
(assert (not (= x63 (_ bv6 8))))
(assert (not (= x64 (_ bv3 8))))
(assert (not (= x64 x66)))
(assert (not (= x64 x67)))
(assert (not (= x64 (_ bv6 8))))
(assert (not (= (_ bv3 8) x66)))
(assert (not (= (_ bv3 8) x67)))
(assert (not (= (_ bv3 8) (_ bv6 8))))
(assert (not (= x66 x67)))
(assert (not (= x66 (_ bv6 8))))
(assert (not (= x67 (_ bv6 8))))
(assert (not (= (_ bv5 8) x71)))
(assert (not (= (_ bv5 8) x72)))
(assert (not (= (_ bv5 8) (_ bv2 8))))
(assert (not (= (_ bv5 8) (_ bv1 8))))
(assert (not (= (_ bv5 8) x75)))
(assert (not (= (_ bv5 8) x76)))
(assert (not (= (_ bv5 8) x77)))
(assert (not (= (_ bv5 8) (_ bv8 8))))
(assert (not (= x71 x72)))
(assert (not (= x71 (_ bv2 8))))
(assert (not (= x71 (_ bv1 8))))
(assert (not (= x71 x75)))
(assert (not (= x71 x76)))
(assert (not (= x71 x77)))
(assert (not (= x71 (_ bv8 8))))
(assert (not (= x72 (_ bv2 8))))
(assert (not (= x72 (_ bv1 8))))
(assert (not (= x72 x75)))
(assert (not (= x72 x76)))
(assert (not (= x72 x77)))
(assert (not (= x72 (_ bv8 8))))
(assert (not (= (_ bv2 8) (_ bv1 8))))
(assert (not (= (_ bv2 8) x75)))
(assert (not (= (_ bv2 8) x76)))
(assert (not (= (_ bv2 8) x77)))
(assert (not (= (_ bv2 8) (_ bv8 8))))
(assert (not (= (_ bv1 8) x75)))
(assert (not (= (_ bv1 8) x76)))
(assert (not (= (_ bv1 8) x77)))
(assert (not (= (_ bv1 8) (_ bv8 8))))
(assert (not (= x75 x76)))
(assert (not (= x75 x77)))
(assert (not (= x75 (_ bv8 8))))
(assert (not (= x76 x77)))
(assert (not (= x76 (_ bv8 8))))
(assert (not (= x77 (_ bv8 8))))
(assert (not (= x80 (_ bv4 8))))
(assert (not (= x80 (_ bv7 8))))
(assert (not (= x80 x83)))
(assert (not (= x80 x84)))
(assert (not (= x80 x85)))
(assert (not (= x80 (_ bv9 8))))
(assert (not (= x80 x87)))
(assert (not (= x80 x88)))
(assert (not (= (_ bv4 8) (_ bv7 8))))
(assert (not (= (_ bv4 8) x83)))
(assert (not (= (_ bv4 8) x84)))
(assert (not (= (_ bv4 8) x85)))
(assert (not (= (_ bv4 8) (_ bv9 8))))
(assert (not (= (_ bv4 8) x87)))
(assert (not (= (_ bv4 8) x88)))
(assert (not (= (_ bv7 8) x83)))
(assert (not (= (_ bv7 8) x84)))
(assert (not (= (_ bv7 8) x85)))
(assert (not (= (_ bv7 8) (_ bv9 8))))
(assert (not (= (_ bv7 8) x87)))
(assert (not (= (_ bv7 8) x88)))
(assert (not (= x83 x84)))
(assert (not (= x83 x85)))
(assert (not (= x83 (_ bv9 8))))
(assert (not (= x83 x87)))
(assert (not (= x83 x88)))
(assert (not (= x84 x85)))
(assert (not (= x84 (_ bv9 8))))
(assert (not (= x84 x87)))
(assert (not (= x84 x88)))
(assert (not (= x85 (_ bv9 8))))
(assert (not (= x85 x87)))
(assert (not (= x85 x88)))
(assert (not (= (_ bv9 8) x87)))
(assert (not (= (_ bv9 8) x88)))
(assert (not (= x87 x88)))
(assert (not (= x00 (_ bv8 8))))
(assert (not (= x00 (_ bv3 8))))
(assert (not (= x00 (_ bv6 8))))
(assert (not (= x00 x40)))
(assert (not (= x00 x50)))
(assert (not (= x00 (_ bv9 8))))
(assert (not (= x00 (_ bv5 8))))
(assert (not (= x00 x80)))
(assert (not (= (_ bv8 8) (_ bv3 8))))
(assert (not (= (_ bv8 8) (_ bv6 8))))
(assert (not (= (_ bv8 8) x40)))
(assert (not (= (_ bv8 8) x50)))
(assert (not (= (_ bv8 8) (_ bv9 8))))
(assert (not (= (_ bv8 8) (_ bv5 8))))
(assert (not (= (_ bv8 8) x80)))
(assert (not (= (_ bv3 8) (_ bv6 8))))
(assert (not (= (_ bv3 8) x40)))
(assert (not (= (_ bv3 8) x50)))
(assert (not (= (_ bv3 8) (_ bv9 8))))
(assert (not (= (_ bv3 8) (_ bv5 8))))
(assert (not (= (_ bv3 8) x80)))
(assert (not (= (_ bv6 8) x40)))
(assert (not (= (_ bv6 8) x50)))
(assert (not (= (_ bv6 8) (_ bv9 8))))
(assert (not (= (_ bv6 8) (_ bv5 8))))
(assert (not (= (_ bv6 8) x80)))
(assert (not (= x40 x50)))
(assert (not (= x40 (_ bv9 8))))
(assert (not (= x40 (_ bv5 8))))
(assert (not (= x40 x80)))
(assert (not (= x50 (_ bv9 8))))
(assert (not (= x50 (_ bv5 8))))
(assert (not (= x50 x80)))
(assert (not (= (_ bv9 8) (_ bv5 8))))
(assert (not (= (_ bv9 8) x80)))
(assert (not (= (_ bv5 8) x80)))
(assert (not (= x01 (_ bv7 8))))
(assert (not (= x01 x21)))
(assert (not (= x01 x31)))
(assert (not (= x01 x41)))
(assert (not (= x01 (_ bv1 8))))
(assert (not (= x01 x61)))
(assert (not (= x01 x71)))
(assert (not (= x01 (_ bv4 8))))
(assert (not (= (_ bv7 8) x21)))
(assert (not (= (_ bv7 8) x31)))
(assert (not (= (_ bv7 8) x41)))
(assert (not (= (_ bv7 8) (_ bv1 8))))
(assert (not (= (_ bv7 8) x61)))
(assert (not (= (_ bv7 8) x71)))
(assert (not (= (_ bv7 8) (_ bv4 8))))
(assert (not (= x21 x31)))
(assert (not (= x21 x41)))
(assert (not (= x21 (_ bv1 8))))
(assert (not (= x21 x61)))
(assert (not (= x21 x71)))
(assert (not (= x21 (_ bv4 8))))
(assert (not (= x31 x41)))
(assert (not (= x31 (_ bv1 8))))
(assert (not (= x31 x61)))
(assert (not (= x31 x71)))
(assert (not (= x31 (_ bv4 8))))
(assert (not (= x41 (_ bv1 8))))
(assert (not (= x41 x61)))
(assert (not (= x41 x71)))
(assert (not (= x41 (_ bv4 8))))
(assert (not (= (_ bv1 8) x61)))
(assert (not (= (_ bv1 8) x71)))
(assert (not (= (_ bv1 8) (_ bv4 8))))
(assert (not (= x61 x71)))
(assert (not (= x61 (_ bv4 8))))
(assert (not (= x71 (_ bv4 8))))
(assert (not (= (_ bv4 8) (_ bv5 8))))
(assert (not (= (_ bv4 8) x22)))
(assert (not (= (_ bv4 8) (_ bv9 8))))
(assert (not (= (_ bv4 8) (_ bv2 8))))
(assert (not (= (_ bv4 8) x52)))
(assert (not (= (_ bv4 8) x62)))
(assert (not (= (_ bv4 8) x72)))
(assert (not (= (_ bv4 8) (_ bv7 8))))
(assert (not (= (_ bv5 8) x22)))
(assert (not (= (_ bv5 8) (_ bv9 8))))
(assert (not (= (_ bv5 8) (_ bv2 8))))
(assert (not (= (_ bv5 8) x52)))
(assert (not (= (_ bv5 8) x62)))
(assert (not (= (_ bv5 8) x72)))
(assert (not (= (_ bv5 8) (_ bv7 8))))
(assert (not (= x22 (_ bv9 8))))
(assert (not (= x22 (_ bv2 8))))
(assert (not (= x22 x52)))
(assert (not (= x22 x62)))
(assert (not (= x22 x72)))
(assert (not (= x22 (_ bv7 8))))
(assert (not (= (_ bv9 8) (_ bv2 8))))
(assert (not (= (_ bv9 8) x52)))
(assert (not (= (_ bv9 8) x62)))
(assert (not (= (_ bv9 8) x72)))
(assert (not (= (_ bv9 8) (_ bv7 8))))
(assert (not (= (_ bv2 8) x52)))
(assert (not (= (_ bv2 8) x62)))
(assert (not (= (_ bv2 8) x72)))
(assert (not (= (_ bv2 8) (_ bv7 8))))
(assert (not (= x52 x62)))
(assert (not (= x52 x72)))
(assert (not (= x52 (_ bv7 8))))
(assert (not (= x62 x72)))
(assert (not (= x62 (_ bv7 8))))
(assert (not (= x72 (_ bv7 8))))
(assert (not (= x03 x13)))
(assert (not (= x03 x23)))
(assert (not (= x03 x33)))
(assert (not (= x03 (_ bv7 8))))
(assert (not (= x03 (_ bv9 8))))
(assert (not (= x03 x63)))
(assert (not (= x03 (_ bv2 8))))
(assert (not (= x03 x83)))
(assert (not (= x13 x23)))
(assert (not (= x13 x33)))
(assert (not (= x13 (_ bv7 8))))
(assert (not (= x13 (_ bv9 8))))
(assert (not (= x13 x63)))
(assert (not (= x13 (_ bv2 8))))
(assert (not (= x13 x83)))
(assert (not (= x23 x33)))
(assert (not (= x23 (_ bv7 8))))
(assert (not (= x23 (_ bv9 8))))
(assert (not (= x23 x63)))
(assert (not (= x23 (_ bv2 8))))
(assert (not (= x23 x83)))
(assert (not (= x33 (_ bv7 8))))
(assert (not (= x33 (_ bv9 8))))
(assert (not (= x33 x63)))
(assert (not (= x33 (_ bv2 8))))
(assert (not (= x33 x83)))
(assert (not (= (_ bv7 8) (_ bv9 8))))
(assert (not (= (_ bv7 8) x63)))
(assert (not (= (_ bv7 8) (_ bv2 8))))
(assert (not (= (_ bv7 8) x83)))
(assert (not (= (_ bv9 8) x63)))
(assert (not (= (_ bv9 8) (_ bv2 8))))
(assert (not (= (_ bv9 8) x83)))
(assert (not (= x63 (_ bv2 8))))
(assert (not (= x63 x83)))
(assert (not (= (_ bv2 8) x83)))
(assert (not (= (_ bv6 8) x14)))
(assert (not (= (_ bv6 8) (_ bv4 8))))
(assert (not (= (_ bv6 8) (_ bv5 8))))
(assert (not (= (_ bv6 8) x44)))
(assert (not (= (_ bv6 8) x54)))
(assert (not (= (_ bv6 8) x64)))
(assert (not (= (_ bv6 8) (_ bv1 8))))
(assert (not (= (_ bv6 8) x84)))
(assert (not (= x14 (_ bv4 8))))
(assert (not (= x14 (_ bv5 8))))
(assert (not (= x14 x44)))
(assert (not (= x14 x54)))
(assert (not (= x14 x64)))
(assert (not (= x14 (_ bv1 8))))
(assert (not (= x14 x84)))
(assert (not (= (_ bv4 8) (_ bv5 8))))
(assert (not (= (_ bv4 8) x44)))
(assert (not (= (_ bv4 8) x54)))
(assert (not (= (_ bv4 8) x64)))
(assert (not (= (_ bv4 8) (_ bv1 8))))
(assert (not (= (_ bv4 8) x84)))
(assert (not (= (_ bv5 8) x44)))
(assert (not (= (_ bv5 8) x54)))
(assert (not (= (_ bv5 8) x64)))
(assert (not (= (_ bv5 8) (_ bv1 8))))
(assert (not (= (_ bv5 8) x84)))
(assert (not (= x44 x54)))
(assert (not (= x44 x64)))
(assert (not (= x44 (_ bv1 8))))
(assert (not (= x44 x84)))
(assert (not (= x54 x64)))
(assert (not (= x54 (_ bv1 8))))
(assert (not (= x54 x84)))
(assert (not (= x64 (_ bv1 8))))
(assert (not (= x64 x84)))
(assert (not (= (_ bv1 8) x84)))
(assert (not (= x05 x15)))
(assert (not (= x05 (_ bv7 8))))
(assert (not (= x05 (_ bv1 8))))
(assert (not (= x05 (_ bv6 8))))
(assert (not (= x05 x55)))
(assert (not (= x05 (_ bv3 8))))
(assert (not (= x05 x75)))
(assert (not (= x05 x85)))
(assert (not (= x15 (_ bv7 8))))
(assert (not (= x15 (_ bv1 8))))
(assert (not (= x15 (_ bv6 8))))
(assert (not (= x15 x55)))
(assert (not (= x15 (_ bv3 8))))
(assert (not (= x15 x75)))
(assert (not (= x15 x85)))
(assert (not (= (_ bv7 8) (_ bv1 8))))
(assert (not (= (_ bv7 8) (_ bv6 8))))
(assert (not (= (_ bv7 8) x55)))
(assert (not (= (_ bv7 8) (_ bv3 8))))
(assert (not (= (_ bv7 8) x75)))
(assert (not (= (_ bv7 8) x85)))
(assert (not (= (_ bv1 8) (_ bv6 8))))
(assert (not (= (_ bv1 8) x55)))
(assert (not (= (_ bv1 8) (_ bv3 8))))
(assert (not (= (_ bv1 8) x75)))
(assert (not (= (_ bv1 8) x85)))
(assert (not (= (_ bv6 8) x55)))
(assert (not (= (_ bv6 8) (_ bv3 8))))
(assert (not (= (_ bv6 8) x75)))
(assert (not (= (_ bv6 8) x85)))
(assert (not (= x55 (_ bv3 8))))
(assert (not (= x55 x75)))
(assert (not (= x55 x85)))
(assert (not (= (_ bv3 8) x75)))
(assert (not (= (_ bv3 8) x85)))
(assert (not (= x75 x85)))
(assert (not (= (_ bv5 8) x16)))
(assert (not (= (_ bv5 8) x26)))
(assert (not (= (_ bv5 8) x36)))
(assert (not (= (_ bv5 8) x46)))
(assert (not (= (_ bv5 8) (_ bv3 8))))
(assert (not (= (_ bv5 8) x66)))
(assert (not (= (_ bv5 8) x76)))
(assert (not (= (_ bv5 8) (_ bv9 8))))
(assert (not (= x16 x26)))
(assert (not (= x16 x36)))
(assert (not (= x16 x46)))
(assert (not (= x16 (_ bv3 8))))
(assert (not (= x16 x66)))
(assert (not (= x16 x76)))
(assert (not (= x16 (_ bv9 8))))
(assert (not (= x26 x36)))
(assert (not (= x26 x46)))
(assert (not (= x26 (_ bv3 8))))
(assert (not (= x26 x66)))
(assert (not (= x26 x76)))
(assert (not (= x26 (_ bv9 8))))
(assert (not (= x36 x46)))
(assert (not (= x36 (_ bv3 8))))
(assert (not (= x36 x66)))
(assert (not (= x36 x76)))
(assert (not (= x36 (_ bv9 8))))
(assert (not (= x46 (_ bv3 8))))
(assert (not (= x46 x66)))
(assert (not (= x46 x76)))
(assert (not (= x46 (_ bv9 8))))
(assert (not (= (_ bv3 8) x66)))
(assert (not (= (_ bv3 8) x76)))
(assert (not (= (_ bv3 8) (_ bv9 8))))
(assert (not (= x66 x76)))
(assert (not (= x66 (_ bv9 8))))
(assert (not (= x76 (_ bv9 8))))
(assert (not (= (_ bv2 8) x17)))
(assert (not (= (_ bv2 8) x27)))
(assert (not (= (_ bv2 8) (_ bv4 8))))
(assert (not (= (_ bv2 8) (_ bv8 8))))
(assert (not (= (_ bv2 8) x57)))
(assert (not (= (_ bv2 8) x67)))
(assert (not (= (_ bv2 8) x77)))
(assert (not (= (_ bv2 8) x87)))
(assert (not (= x17 x27)))
(assert (not (= x17 (_ bv4 8))))
(assert (not (= x17 (_ bv8 8))))
(assert (not (= x17 x57)))
(assert (not (= x17 x67)))
(assert (not (= x17 x77)))
(assert (not (= x17 x87)))
(assert (not (= x27 (_ bv4 8))))
(assert (not (= x27 (_ bv8 8))))
(assert (not (= x27 x57)))
(assert (not (= x27 x67)))
(assert (not (= x27 x77)))
(assert (not (= x27 x87)))
(assert (not (= (_ bv4 8) (_ bv8 8))))
(assert (not (= (_ bv4 8) x57)))
(assert (not (= (_ bv4 8) x67)))
(assert (not (= (_ bv4 8) x77)))
(assert (not (= (_ bv4 8) x87)))
(assert (not (= (_ bv8 8) x57)))
(assert (not (= (_ bv8 8) x67)))
(assert (not (= (_ bv8 8) x77)))
(assert (not (= (_ bv8 8) x87)))
(assert (not (= x57 x67)))
(assert (not (= x57 x77)))
(assert (not (= x57 x87)))
(assert (not (= x67 x77)))
(assert (not (= x67 x87)))
(assert (not (= x77 x87)))
(assert (not (= x08 x18)))
(assert (not (= x08 (_ bv1 8))))
(assert (not (= x08 (_ bv2 8))))
(assert (not (= x08 x48)))
(assert (not (= x08 x58)))
(assert (not (= x08 (_ bv6 8))))
(assert (not (= x08 (_ bv8 8))))
(assert (not (= x08 x88)))
(assert (not (= x18 (_ bv1 8))))
(assert (not (= x18 (_ bv2 8))))
(assert (not (= x18 x48)))
(assert (not (= x18 x58)))
(assert (not (= x18 (_ bv6 8))))
(assert (not (= x18 (_ bv8 8))))
(assert (not (= x18 x88)))
(assert (not (= (_ bv1 8) (_ bv2 8))))
(assert (not (= (_ bv1 8) x48)))
(assert (not (= (_ bv1 8) x58)))
(assert (not (= (_ bv1 8) (_ bv6 8))))
(assert (not (= (_ bv1 8) (_ bv8 8))))
(assert (not (= (_ bv1 8) x88)))
(assert (not (= (_ bv2 8) x48)))
(assert (not (= (_ bv2 8) x58)))
(assert (not (= (_ bv2 8) (_ bv6 8))))
(assert (not (= (_ bv2 8) (_ bv8 8))))
(assert (not (= (_ bv2 8) x88)))
(assert (not (= x48 x58)))
(assert (not (= x48 (_ bv6 8))))
(assert (not (= x48 (_ bv8 8))))
(assert (not (= x48 x88)))
(assert (not (= x58 (_ bv6 8))))
(assert (not (= x58 (_ bv8 8))))
(assert (not (= x58 x88)))
(assert (not (= (_ bv6 8) (_ bv8 8))))
(assert (not (= (_ bv6 8) x88)))
(assert (not (= (_ bv8 8) x88)))
(assert (not (= x00 x01)))
(assert (not (= x00 (_ bv4 8))))
(assert (not (= x00 (_ bv8 8))))
(assert (not (= x00 (_ bv7 8))))
(assert (not (= x00 (_ bv5 8))))
(assert (not (= x00 (_ bv3 8))))
(assert (not (= x00 x21)))
(assert (not (= x00 x22)))
(assert (not (= x01 (_ bv4 8))))
(assert (not (= x01 (_ bv8 8))))
(assert (not (= x01 (_ bv7 8))))
(assert (not (= x01 (_ bv5 8))))
(assert (not (= x01 (_ bv3 8))))
(assert (not (= x01 x21)))
(assert (not (= x01 x22)))
(assert (not (= (_ bv4 8) (_ bv8 8))))
(assert (not (= (_ bv4 8) (_ bv7 8))))
(assert (not (= (_ bv4 8) (_ bv5 8))))
(assert (not (= (_ bv4 8) (_ bv3 8))))
(assert (not (= (_ bv4 8) x21)))
(assert (not (= (_ bv4 8) x22)))
(assert (not (= (_ bv8 8) (_ bv7 8))))
(assert (not (= (_ bv8 8) (_ bv5 8))))
(assert (not (= (_ bv8 8) (_ bv3 8))))
(assert (not (= (_ bv8 8) x21)))
(assert (not (= (_ bv8 8) x22)))
(assert (not (= (_ bv7 8) (_ bv5 8))))
(assert (not (= (_ bv7 8) (_ bv3 8))))
(assert (not (= (_ bv7 8) x21)))
(assert (not (= (_ bv7 8) x22)))
(assert (not (= (_ bv5 8) (_ bv3 8))))
(assert (not (= (_ bv5 8) x21)))
(assert (not (= (_ bv5 8) x22)))
(assert (not (= (_ bv3 8) x21)))
(assert (not (= (_ bv3 8) x22)))
(assert (not (= x21 x22)))
(assert (not (= x03 (_ bv6 8))))
(assert (not (= x03 x05)))
(assert (not (= x03 x13)))
(assert (not (= x03 x14)))
(assert (not (= x03 x15)))
(assert (not (= x03 x23)))
(assert (not (= x03 (_ bv4 8))))
(assert (not (= x03 (_ bv7 8))))
(assert (not (= (_ bv6 8) x05)))
(assert (not (= (_ bv6 8) x13)))
(assert (not (= (_ bv6 8) x14)))
(assert (not (= (_ bv6 8) x15)))
(assert (not (= (_ bv6 8) x23)))
(assert (not (= (_ bv6 8) (_ bv4 8))))
(assert (not (= (_ bv6 8) (_ bv7 8))))
(assert (not (= x05 x13)))
(assert (not (= x05 x14)))
(assert (not (= x05 x15)))
(assert (not (= x05 x23)))
(assert (not (= x05 (_ bv4 8))))
(assert (not (= x05 (_ bv7 8))))
(assert (not (= x13 x14)))
(assert (not (= x13 x15)))
(assert (not (= x13 x23)))
(assert (not (= x13 (_ bv4 8))))
(assert (not (= x13 (_ bv7 8))))
(assert (not (= x14 x15)))
(assert (not (= x14 x23)))
(assert (not (= x14 (_ bv4 8))))
(assert (not (= x14 (_ bv7 8))))
(assert (not (= x15 x23)))
(assert (not (= x15 (_ bv4 8))))
(assert (not (= x15 (_ bv7 8))))
(assert (not (= x23 (_ bv4 8))))
(assert (not (= x23 (_ bv7 8))))
(assert (not (= (_ bv4 8) (_ bv7 8))))
(assert (not (= (_ bv5 8) (_ bv2 8))))
(assert (not (= (_ bv5 8) x08)))
(assert (not (= (_ bv5 8) x16)))
(assert (not (= (_ bv5 8) x17)))
(assert (not (= (_ bv5 8) x18)))
(assert (not (= (_ bv5 8) x26)))
(assert (not (= (_ bv5 8) x27)))
(assert (not (= (_ bv5 8) (_ bv1 8))))
(assert (not (= (_ bv2 8) x08)))
(assert (not (= (_ bv2 8) x16)))
(assert (not (= (_ bv2 8) x17)))
(assert (not (= (_ bv2 8) x18)))
(assert (not (= (_ bv2 8) x26)))
(assert (not (= (_ bv2 8) x27)))
(assert (not (= (_ bv2 8) (_ bv1 8))))
(assert (not (= x08 x16)))
(assert (not (= x08 x17)))
(assert (not (= x08 x18)))
(assert (not (= x08 x26)))
(assert (not (= x08 x27)))
(assert (not (= x08 (_ bv1 8))))
(assert (not (= x16 x17)))
(assert (not (= x16 x18)))
(assert (not (= x16 x26)))
(assert (not (= x16 x27)))
(assert (not (= x16 (_ bv1 8))))
(assert (not (= x17 x18)))
(assert (not (= x17 x26)))
(assert (not (= x17 x27)))
(assert (not (= x17 (_ bv1 8))))
(assert (not (= x18 x26)))
(assert (not (= x18 x27)))
(assert (not (= x18 (_ bv1 8))))
(assert (not (= x26 x27)))
(assert (not (= x26 (_ bv1 8))))
(assert (not (= x27 (_ bv1 8))))
(assert (not (= (_ bv6 8) x31)))
(assert (not (= (_ bv6 8) (_ bv9 8))))
(assert (not (= (_ bv6 8) x40)))
(assert (not (= (_ bv6 8) x41)))
(assert (not (= (_ bv6 8) (_ bv2 8))))
(assert (not (= (_ bv6 8) x50)))
(assert (not (= (_ bv6 8) (_ bv1 8))))
(assert (not (= (_ bv6 8) x52)))
(assert (not (= x31 (_ bv9 8))))
(assert (not (= x31 x40)))
(assert (not (= x31 x41)))
(assert (not (= x31 (_ bv2 8))))
(assert (not (= x31 x50)))
(assert (not (= x31 (_ bv1 8))))
(assert (not (= x31 x52)))
(assert (not (= (_ bv9 8) x40)))
(assert (not (= (_ bv9 8) x41)))
(assert (not (= (_ bv9 8) (_ bv2 8))))
(assert (not (= (_ bv9 8) x50)))
(assert (not (= (_ bv9 8) (_ bv1 8))))
(assert (not (= (_ bv9 8) x52)))
(assert (not (= x40 x41)))
(assert (not (= x40 (_ bv2 8))))
(assert (not (= x40 x50)))
(assert (not (= x40 (_ bv1 8))))
(assert (not (= x40 x52)))
(assert (not (= x41 (_ bv2 8))))
(assert (not (= x41 x50)))
(assert (not (= x41 (_ bv1 8))))
(assert (not (= x41 x52)))
(assert (not (= (_ bv2 8) x50)))
(assert (not (= (_ bv2 8) (_ bv1 8))))
(assert (not (= (_ bv2 8) x52)))
(assert (not (= x50 (_ bv1 8))))
(assert (not (= x50 x52)))
(assert (not (= (_ bv1 8) x52)))
(assert (not (= x33 (_ bv5 8))))
(assert (not (= x33 (_ bv1 8))))
(assert (not (= x33 (_ bv7 8))))
(assert (not (= x33 x44)))
(assert (not (= x33 (_ bv6 8))))
(assert (not (= x33 (_ bv9 8))))
(assert (not (= x33 x54)))
(assert (not (= x33 x55)))
(assert (not (= (_ bv5 8) (_ bv1 8))))
(assert (not (= (_ bv5 8) (_ bv7 8))))
(assert (not (= (_ bv5 8) x44)))
(assert (not (= (_ bv5 8) (_ bv6 8))))
(assert (not (= (_ bv5 8) (_ bv9 8))))
(assert (not (= (_ bv5 8) x54)))
(assert (not (= (_ bv5 8) x55)))
(assert (not (= (_ bv1 8) (_ bv7 8))))
(assert (not (= (_ bv1 8) x44)))
(assert (not (= (_ bv1 8) (_ bv6 8))))
(assert (not (= (_ bv1 8) (_ bv9 8))))
(assert (not (= (_ bv1 8) x54)))
(assert (not (= (_ bv1 8) x55)))
(assert (not (= (_ bv7 8) x44)))
(assert (not (= (_ bv7 8) (_ bv6 8))))
(assert (not (= (_ bv7 8) (_ bv9 8))))
(assert (not (= (_ bv7 8) x54)))
(assert (not (= (_ bv7 8) x55)))
(assert (not (= x44 (_ bv6 8))))
(assert (not (= x44 (_ bv9 8))))
(assert (not (= x44 x54)))
(assert (not (= x44 x55)))
(assert (not (= (_ bv6 8) (_ bv9 8))))
(assert (not (= (_ bv6 8) x54)))
(assert (not (= (_ bv6 8) x55)))
(assert (not (= (_ bv9 8) x54)))
(assert (not (= (_ bv9 8) x55)))
(assert (not (= x54 x55)))
(assert (not (= x36 (_ bv4 8))))
(assert (not (= x36 (_ bv2 8))))
(assert (not (= x36 x46)))
(assert (not (= x36 (_ bv8 8))))
(assert (not (= x36 x48)))
(assert (not (= x36 (_ bv3 8))))
(assert (not (= x36 x57)))
(assert (not (= x36 x58)))
(assert (not (= (_ bv4 8) (_ bv2 8))))
(assert (not (= (_ bv4 8) x46)))
(assert (not (= (_ bv4 8) (_ bv8 8))))
(assert (not (= (_ bv4 8) x48)))
(assert (not (= (_ bv4 8) (_ bv3 8))))
(assert (not (= (_ bv4 8) x57)))
(assert (not (= (_ bv4 8) x58)))
(assert (not (= (_ bv2 8) x46)))
(assert (not (= (_ bv2 8) (_ bv8 8))))
(assert (not (= (_ bv2 8) x48)))
(assert (not (= (_ bv2 8) (_ bv3 8))))
(assert (not (= (_ bv2 8) x57)))
(assert (not (= (_ bv2 8) x58)))
(assert (not (= x46 (_ bv8 8))))
(assert (not (= x46 x48)))
(assert (not (= x46 (_ bv3 8))))
(assert (not (= x46 x57)))
(assert (not (= x46 x58)))
(assert (not (= (_ bv8 8) x48)))
(assert (not (= (_ bv8 8) (_ bv3 8))))
(assert (not (= (_ bv8 8) x57)))
(assert (not (= (_ bv8 8) x58)))
(assert (not (= x48 (_ bv3 8))))
(assert (not (= x48 x57)))
(assert (not (= x48 x58)))
(assert (not (= (_ bv3 8) x57)))
(assert (not (= (_ bv3 8) x58)))
(assert (not (= x57 x58)))
(assert (not (= (_ bv9 8) x61)))
(assert (not (= (_ bv9 8) x62)))
(assert (not (= (_ bv9 8) (_ bv5 8))))
(assert (not (= (_ bv9 8) x71)))
(assert (not (= (_ bv9 8) x72)))
(assert (not (= (_ bv9 8) x80)))
(assert (not (= (_ bv9 8) (_ bv4 8))))
(assert (not (= (_ bv9 8) (_ bv7 8))))
(assert (not (= x61 x62)))
(assert (not (= x61 (_ bv5 8))))
(assert (not (= x61 x71)))
(assert (not (= x61 x72)))
(assert (not (= x61 x80)))
(assert (not (= x61 (_ bv4 8))))
(assert (not (= x61 (_ bv7 8))))
(assert (not (= x62 (_ bv5 8))))
(assert (not (= x62 x71)))
(assert (not (= x62 x72)))
(assert (not (= x62 x80)))
(assert (not (= x62 (_ bv4 8))))
(assert (not (= x62 (_ bv7 8))))
(assert (not (= (_ bv5 8) x71)))
(assert (not (= (_ bv5 8) x72)))
(assert (not (= (_ bv5 8) x80)))
(assert (not (= (_ bv5 8) (_ bv4 8))))
(assert (not (= (_ bv5 8) (_ bv7 8))))
(assert (not (= x71 x72)))
(assert (not (= x71 x80)))
(assert (not (= x71 (_ bv4 8))))
(assert (not (= x71 (_ bv7 8))))
(assert (not (= x72 x80)))
(assert (not (= x72 (_ bv4 8))))
(assert (not (= x72 (_ bv7 8))))
(assert (not (= x80 (_ bv4 8))))
(assert (not (= x80 (_ bv7 8))))
(assert (not (= (_ bv4 8) (_ bv7 8))))
(assert (not (= x63 x64)))
(assert (not (= x63 (_ bv3 8))))
(assert (not (= x63 (_ bv2 8))))
(assert (not (= x63 (_ bv1 8))))
(assert (not (= x63 x75)))
(assert (not (= x63 x83)))
(assert (not (= x63 x84)))
(assert (not (= x63 x85)))
(assert (not (= x64 (_ bv3 8))))
(assert (not (= x64 (_ bv2 8))))
(assert (not (= x64 (_ bv1 8))))
(assert (not (= x64 x75)))
(assert (not (= x64 x83)))
(assert (not (= x64 x84)))
(assert (not (= x64 x85)))
(assert (not (= (_ bv3 8) (_ bv2 8))))
(assert (not (= (_ bv3 8) (_ bv1 8))))
(assert (not (= (_ bv3 8) x75)))
(assert (not (= (_ bv3 8) x83)))
(assert (not (= (_ bv3 8) x84)))
(assert (not (= (_ bv3 8) x85)))
(assert (not (= (_ bv2 8) (_ bv1 8))))
(assert (not (= (_ bv2 8) x75)))
(assert (not (= (_ bv2 8) x83)))
(assert (not (= (_ bv2 8) x84)))
(assert (not (= (_ bv2 8) x85)))
(assert (not (= (_ bv1 8) x75)))
(assert (not (= (_ bv1 8) x83)))
(assert (not (= (_ bv1 8) x84)))
(assert (not (= (_ bv1 8) x85)))
(assert (not (= x75 x83)))
(assert (not (= x75 x84)))
(assert (not (= x75 x85)))
(assert (not (= x83 x84)))
(assert (not (= x83 x85)))
(assert (not (= x84 x85)))
(assert (not (= x66 x67)))
(assert (not (= x66 (_ bv6 8))))
(assert (not (= x66 x76)))
(assert (not (= x66 x77)))
(assert (not (= x66 (_ bv8 8))))
(assert (not (= x66 (_ bv9 8))))
(assert (not (= x66 x87)))
(assert (not (= x66 x88)))
(assert (not (= x67 (_ bv6 8))))
(assert (not (= x67 x76)))
(assert (not (= x67 x77)))
(assert (not (= x67 (_ bv8 8))))
(assert (not (= x67 (_ bv9 8))))
(assert (not (= x67 x87)))
(assert (not (= x67 x88)))
(assert (not (= (_ bv6 8) x76)))
(assert (not (= (_ bv6 8) x77)))
(assert (not (= (_ bv6 8) (_ bv8 8))))
(assert (not (= (_ bv6 8) (_ bv9 8))))
(assert (not (= (_ bv6 8) x87)))
(assert (not (= (_ bv6 8) x88)))
(assert (not (= x76 x77)))
(assert (not (= x76 (_ bv8 8))))
(assert (not (= x76 (_ bv9 8))))
(assert (not (= x76 x87)))
(assert (not (= x76 x88)))
(assert (not (= x77 (_ bv8 8))))
(assert (not (= x77 (_ bv9 8))))
(assert (not (= x77 x87)))
(assert (not (= x77 x88)))
(assert (not (= (_ bv8 8) (_ bv9 8))))
(assert (not (= (_ bv8 8) x87)))
(assert (not (= (_ bv8 8) x88)))
(assert (not (= (_ bv9 8) x87)))
(assert (not (= (_ bv9 8) x88)))
(assert (not (= x87 x88)))
(check-sat)
(exit)
